; benchmark generated from python API
(set-info :status unknown)
(declare-fun S_3 () Real)
(declare-fun S_4 () Real)
(declare-fun C () Real)
(declare-fun S_0 () Real)
(declare-fun A_0 () Real)
(declare-fun L_0 () Real)
(declare-fun L0 () Real)
(declare-fun A_3 () Real)
(declare-fun L_1 () Real)
(declare-fun S_2 () Real)
(declare-fun S_1 () Real)
(declare-fun L_3 () Real)
(declare-fun B () Real)
(declare-fun A_1 () Real)
(declare-fun A_2 () Real)
(declare-fun L_2 () Real)
(declare-fun A_4 () Real)
(assert
 (let (($x37 (>= L0 0.0)))
 (let (($x914 (>= C 5.0)))
 (let (($x4626 (<= (+ (* (- 1.0) L_0) (* (- 1.0) S_4) A_3) 0.0)))
 (let (($x1031 (not (<= L_1 L_0))))
 (let (($x11158 (or $x1031 $x4626 (<= (+ (* 3.0 C) (* (- 1.0) S_4) S_0) 0.0))))
 (let ((?x374 (* (- 1.0) A_3)))
 (let ((?x1347 (* 2.0 C)))
 (let ((?x7656 (+ ?x1347 L_0 ?x374 S_1)))
 (let (($x7676 (<= ?x7656 0.0)))
 (let (($x6365 (not (= L_0 L_3))))
 (let (($x7345 (<= (+ ?x1347 (* (- 1.0) S_4) S_1) 0.0)))
 (let ((?x233 (* (- 1.0) B)))
 (let ((?x242 (* (- 1.0) L_1)))
 (let ((?x540 (+ A_1 ?x242 ?x233 ?x1347)))
 (let (($x7506 (>= S_4 ?x540)))
 (let (($x2676 (= L_3 L_1)))
 (let (($x1583 (not (= L_1 L_2))))
 (let (($x7548 (or $x1031 $x1583 $x2676 (<= (+ A_2 (* (- 1.0) L_0) L_3 ?x374 C) 0.0))))
 (let (($x1388 (not (= L_2 L_3))))
 (let (($x1023 (not (<= L_2 L_1))))
 (let (($x54 (= L_1 L_0)))
 (let (($x7551 (or $x54 $x1023 $x1388 (<= (+ A_3 (* (- 1.0) A_1) (* (- 2.0) C)) 0.0))))
 (let ((?x216 (* (- 1.0) L_0)))
 (let ((?x690 (+ A_0 ?x216)))
 (let ((?x2431 (* (- 3.0) C)))
 (let ((?x276 (* (- 1.0) L_3)))
 (let ((?x7318 (+ ?x233 ?x276 A_3 ?x2431)))
 (let (($x64 (= L_2 L_1)))
 (let (($x2968 (not (<= L_2 L_0))))
 (let (($x74 (= L_3 L_2)))
 (let (($x1021 (not (<= L_3 L_2))))
 (let (($x7274 (or $x64 $x1021 (<= (+ A_3 (* (- 1.0) A_2) (* (- 1.0) C)) 0.0))))
 (let (($x3539 (= L_2 L_0)))
 (let (($x2195 (not (= L_0 L_1))))
 (let (($x7235 (or $x2195 $x3539 (<= (+ A_1 ?x216 L_2 (* (- 1.0) A_2) C) 0.0))))
 (let (($x7017 (or $x54 $x1583 (<= (+ A_2 (* (- 1.0) A_1) (* (- 1.0) C)) 0.0))))
 (let (($x117 (>= S_3 S_2)))
 (let (($x36 (>= L_0 L0)))
 (let (($x111 (>= S_1 S_0)))
 (let (($x114 (>= S_2 S_1)))
 (let (($x123 (>= A_2 A_1)))
 (let (($x124 (>= A_3 A_2)))
 (let (($x125 (>= A_4 A_3)))
 (and (<= (+ A_2 (* (- 1.0) L_2)) S_4) (<= ?x690 S_3) (not (<= (+ A_1 ?x242) S_3)) $x125 $x124 $x123 $x114 $x111 $x36 $x117 (or $x54 $x1031) (or $x74 (<= S_3 (+ A_3 ?x276 ?x233))) (>= S_2 (+ A_1 ?x242 ?x233)) (or $x64 (<= S_2 (+ A_2 (* (- 1.0) L_2) ?x233))) (<= (+ ?x233 ?x242 A_1 (* (- 1.0) C)) ?x690) (>= S_0 (+ ?x233 ?x242 A_1 (* (- 2.0) C))) (>= S_1 (+ ?x233 ?x242 A_1 (* (- 1.0) C))) (or $x54 $x64 (= (+ A_2 (* (- 1.0) L_2)) (+ A_1 ?x242 C))) (or $x54 (<= S_1 (+ A_1 ?x242 ?x233))) (or $x54 (<= S_0 (+ ?x233 ?x242 A_1 (* (- 1.0) C)))) (or $x54 (<= S_3 ?x540)) (or $x54 (<= S_4 (+ A_1 ?x242 ?x233 (* 3.0 C)))) (or $x54 (<= S_2 (+ A_1 ?x242 ?x233 C))) (<= (+ (* (- 2.0) C) S_2 (* (- 1.0) S_1)) 0.0) (<= (+ (* (- 2.0) C) L_0 (* (- 1.0) A_0) S_2) 0.0) (>= S_3 (+ A_2 (* (- 1.0) L_2) ?x233)) (>= S_4 (+ A_3 ?x276 ?x233)) (or $x64 $x1023) (or $x74 (<= S_4 (+ A_3 ?x276 ?x233 C))) $x7017 (or $x64 (<= S_1 (+ ?x233 (* (- 1.0) L_2) A_2 (* (- 1.0) C)))) (>= S_2 (+ ?x233 (* (- 1.0) L_2) A_2 (* (- 1.0) C))) (or $x74 $x1021) $x7235 (or $x64 $x74 (= (+ A_3 ?x276) (+ A_2 (* (- 1.0) L_2) C))) (>= S_0 (+ ?x233 (* (- 1.0) L_2) A_2 ?x2431)) (<= (+ ?x233 (* (- 1.0) L_2) A_2 (* (- 2.0) C)) ?x690) $x7274 (or $x54 $x74 (= (+ A_3 ?x276) (+ A_1 ?x242 ?x1347))) (<= (+ (* (- 1.0) C) L_0 (* (- 1.0) A_0) S_1) 0.0) (>= S_3 (+ ?x233 ?x276 A_3 (* (- 1.0) C))) (<= (+ C (* (- 1.0) S_3) S_1) 0.0) (or $x74 (<= S_1 (+ ?x233 ?x276 A_3 (* (- 2.0) C)))) (or $x74 $x2968 (<= (+ A_1 ?x216 L_3 ?x374 ?x1347) 0.0)) (or $x2968 (>= S_3 (+ A_1 ?x216 ?x233 C))) (or $x64 (<= S_0 (+ ?x233 (* (- 1.0) L_2) A_2 (* (- 2.0) C)))) (>= S_1 (+ ?x233 (* (- 1.0) L_2) A_2 (* (- 2.0) C))) (or $x64 (<= S_4 (+ A_2 (* (- 1.0) L_2) ?x233 ?x1347))) (<= S_4 (+ A_4 (* (- 1.0) L_2))) (<= (+ C (* (- 1.0) S_2) S_0) 0.0) (<= (+ ?x1347 (* (- 1.0) S_3) S_0) 0.0) (or $x74 (<= S_0 ?x7318)) (>= S_0 (+ ?x233 ?x276 A_3 (* (- 4.0) C))) (>= S_2 (+ ?x233 ?x276 A_3 (* (- 2.0) C))) (or $x74 (<= S_2 (+ ?x233 ?x276 A_3 (* (- 1.0) C)))) (>= S_1 ?x7318) (<= (+ (* (- 2.0) C) S_1 (* (- 1.0) S_0)) 0.0) (<= ?x7318 ?x690) (or $x7506 (<= A_3 (+ A_1 ?x233 ?x1347))) (or (>= S_4 (+ A_3 ?x242)) (<= (+ ?x1347 A_1 ?x233 ?x374) 0.0)) (>= S_3 (+ A_1 ?x242 ?x233 C)) $x7551 $x7548 (or $x7506 (not (<= (+ ?x1347 A_1 ?x233 ?x374) 0.0))) (<= (+ ?x2431 S_2 (* (- 1.0) S_0)) 0.0) (<= (+ (* (- 4.0) C) L_0 S_4 (* (- 1.0) A_0)) 0.0) (<= (+ (* (- 4.0) C) S_4 (* (- 1.0) S_1)) 0.0) (or $x1031 $x7345 (<= 0.0 ?x7656)) (or $x6365 $x7345 (not $x7676)) (or $x4626 $x6365 $x7676) (<= (+ ?x2431 S_3 (* (- 1.0) S_1)) 0.0) (<= (+ (* (- 2.0) C) S_3 (* (- 1.0) S_2)) 0.0) (<= (+ (* (- 4.0) C) S_3 (* (- 1.0) S_0)) 0.0) (<= (+ (* (- 5.0) C) S_4 (* (- 1.0) S_0)) 0.0) (<= S_4 (+ A_3 ?x242 C)) (or $x1031 $x4626 (<= (+ C (* (- 1.0) S_4) S_2) 0.0)) (<= (+ ?x2431 L_0 (* (- 1.0) A_0) S_3) 0.0) (<= (+ ?x2431 S_4 (* (- 1.0) S_2)) 0.0) $x11158 $x914 $x37 (<= (+ L_0 (* (- 1.0) A_0) S_0) 0.0) (<= (+ (* (- 2.0) C) S_4 (* (- 1.0) S_3)) 0.0))))))))))))))))))))))))))))))))))))))))))))))
(check-sat)
